Set parameter TokenServer to value "hpc-licenses.hpcc.usc.edu"
Set parameter TimeLimit to value 3600
Gurobi Optimizer version 9.5.1 build v9.5.1rc2 (linux64)
Thread count: 20 physical cores, 20 logical processors, using up to 20 threads
Optimize a model with 6007 rows, 4529 columns and 24534 nonzeros
Model fingerprint: 0x6ce56fb3
Variable types: 4506 continuous, 23 integer (23 binary)
Coefficient statistics:
  Matrix range     [1e+00, 1e+00]
  Objective range  [1e-03, 3e+00]
  Bounds range     [1e+00, 1e+00]
  RHS range        [1e+00, 6e+01]
Presolve removed 1514 rows and 1511 columns
Presolve time: 0.07s
Presolved: 4493 rows, 3018 columns, 21993 nonzeros
Variable types: 2998 continuous, 20 integer (20 binary)
Found heuristic solution: objective 294.9574222
Found heuristic solution: objective 296.1355527

Root relaxation: objective 3.016700e+02, 2151 iterations, 0.09 seconds (0.12 work units)

    Nodes    |    Current Node    |     Objective Bounds      |     Work
 Expl Unexpl |  Obj  Depth IntInf | Incumbent    BestBd   Gap | It/Node Time

     0     0  301.67003    0    2  296.13555  301.67003  1.87%     -    0s
     0     0  301.26930    0    2  296.13555  301.26930  1.73%     -    0s
     0     0  300.60291    0    4  296.13555  300.60291  1.51%     -    0s
     0     0  299.79171    0    4  296.13555  299.79171  1.23%     -    0s
     0     0  299.79171    0    4  296.13555  299.79171  1.23%     -    0s
     0     0  299.37941    0    4  296.13555  299.37941  1.10%     -    0s
     0     0  298.68390    0    3  296.13555  298.68390  0.86%     -    0s
     0     0  298.68390    0    3  296.13555  298.68390  0.86%     -    0s
     0     2  298.68390    0    3  296.13555  298.68390  0.86%     -    1s
*   10     2               5     296.8907699  298.68390  0.60%   236    2s

Cutting planes:
  Gomory: 3
  MIR: 70
  Flow cover: 12
  RLT: 14

Explored 31 nodes (7461 simplex iterations) in 3.42 seconds (1.33 work units)
Thread count was 20 (of 20 available processors)

Solution count 3: 296.891 296.136 294.957 

Optimal solution found (tolerance 1.00e-04)
Best objective 2.968907698583e+02, best bound 2.968907698583e+02, gap 0.0000%



#########node  1
V1.9
#########node  2
0.0,1.0
#########node  3
1.0,0.0


Total Solving Time 3.814889907836914
obj value 296.89076985830775
Policy Regret train (Sum) 1.2671902492705043
Best Treatment Found train (%) 86.2
treatment classification acc train (%) 37.8
Policy Regret test (Sum) 171.4960881571544
Best Treatment Found test (%) 52.800000000000004
treatment classification acc test (%) 41.52
